17	4
14	14	16	15	
0	0	0	0	0	3	2	3	4	
2	9	8	3	9	3	5	11	15	
3	1	3	3	10	3	6	9	15	
3	10	6	7	9	3	5	8	14	
5	6	6	9	9	3	17	17	17	
150	4	1	7	1	3	7	11	17	
50	2	7	4	7	3	10	13	17	
200	4	10	8	8	3	9	12	17	
25	6	7	10	9	3	13	17	17	
250	6	6	5	8	3	14	17	17	
25	9	4	4	4	3	12	14	17	
200	3	8	5	5	3	13	16	17	
8	2	6	9	6	2	17	17	
9	7	3	3	7	1	17	
9	9	4	8	10	2	17	17	
8	9	9	10	5	3	17	17	17	
0	0	0	0	0	0	
